
    (define-sort ABS.StdLib.Int () Int)
    (define-sort ABS.StdLib.Float () Real)
    (define-sort ABS.StdLib.Bool () Bool)
    (define-sort ABS.StdLib.String () String)
	(define-fun min ((x Real) (y Real)) Real
  (ite (< x y) x y))
(define-fun max ((x Real) (y Real)) Real
  (ite (< x y) y x))
	(declare-fun p54 () Real)
	(declare-fun p55 () Real)
	(assert (<= 0 p54 ))
	(assert (<= p54 1 ))
	(assert (<= 0 p55 ))
	(assert (<= p55 1 ))
	(assert (<= (/  1 2) (+ (* (/  1 2) p54) (* (- 1 (/  1 2)) p55))))(assert true)
	(assert (<= p54 1))
(assert true)
	(assert (<= p55 1))
(assert true)
	(check-sat)